c --- [ banner ] -------------------------------------------------------------
c 
c CaDiCaL Radically Simplified CDCL SAT Solver
c Copyright (c) 2016-2021 A. Biere, M. Fleury, N. Froleyks
c 
c Version 1.5.2 9c38a080b32c28d805e8e6ca21849856b0cda605
c g++ (Ubuntu 7.5.0-3ubuntu1~18.04) 7.5.0 -Wall -Wextra -O3 -DNDEBUG
c Wed Feb 16 23:15:36 EST 2022 Linux fac-vanhoeve01 5.4.0-99-generic x86_64
c 
c --- [ limit ] --------------------------------------------------------------
c 
c setting time limit to 600 seconds real time (due to '-t 600')
c setting conflict limit to 1000000000 conflicts (due to '1000000000')
c 
c --- [ parsing input ] ------------------------------------------------------
c 
c reading DIMACS file from 'ddfwcnfs/queen7_7.col_7.cnf'
c opening file to read 'ddfwcnfs/queen7_7.col_7.cnf'
c found 'p cnf 343 2688' header
c parsed 2688 clauses in 0.00 seconds process time
c closing file 'ddfwcnfs/queen7_7.col_7.cnf'
c after reading 30499 bytes 0.0 MB
c 
c --- [ options ] ------------------------------------------------------------
c 
c all options are set to their default value
c 
c --- [ solving ] ------------------------------------------------------------
c 
c time measured in process time since initialization
c 
c  seconds  reductions  redundant irredundant
c         MB    restarts       trail    variables
c          level   conflicts       glue     remaining
c 
c *  0.00  3  0 0   0    0    0  0% 0 2639 294 86%
c {  0.00  3  0 0   0    0    0  0% 0 2639 294 86%
c i  0.00  3  3 0   0   27   15 49% 2 2639 293 85%
c }  0.01  3  7 0  22  170  130 71% 4 2639 293 85%
c 1  0.01  3  7 0  22  170  130 71% 4 2639 293 85%
c 
c --- [ result ] -------------------------------------------------------------
c 
s SATISFIABLE
v -1 -2 -3 4 -5 -6 -7 -8 -9 -10 -11 12 -13 -14 -15 -16 -17 -18 -19 20 -21 -22
v -23 -24 -25 -26 -27 28 29 -30 -31 -32 -33 -34 -35 -36 37 -38 -39 -40 -41 -42
v -43 -44 45 -46 -47 -48 -49 -50 -51 -52 -53 -54 -55 56 57 -58 -59 -60 -61 -62
v -63 -64 65 -66 -67 -68 -69 -70 -71 -72 73 -74 -75 -76 -77 -78 -79 -80 81 -82
v -83 -84 -85 -86 -87 -88 89 -90 -91 -92 -93 -94 -95 -96 97 -98 -99 -100 101
v -102 -103 -104 -105 -106 -107 -108 109 -110 -111 -112 -113 -114 -115 -116
v 117 -118 -119 -120 -121 -122 -123 -124 125 -126 -127 -128 -129 -130 -131
v -132 133 134 -135 -136 -137 -138 -139 -140 -141 142 -143 -144 -145 -146 -147
v -148 -149 -150 -151 -152 153 -154 -155 -156 -157 -158 -159 -160 161 162 -163
v -164 -165 -166 -167 -168 -169 170 -171 -172 -173 -174 -175 -176 -177 178
v -179 -180 -181 -182 -183 -184 -185 186 -187 -188 -189 -190 -191 -192 -193
v 194 -195 -196 -197 198 -199 -200 -201 -202 -203 -204 -205 206 -207 -208 -209
v -210 -211 -212 -213 214 -215 -216 -217 -218 -219 -220 -221 222 -223 -224
v -225 -226 -227 -228 -229 230 -231 -232 -233 -234 -235 -236 -237 238 239 -240
v -241 -242 -243 -244 -245 -246 -247 -248 -249 250 -251 -252 -253 -254 -255
v -256 -257 258 -259 -260 -261 -262 -263 -264 -265 266 267 -268 -269 -270 -271
v -272 -273 -274 275 -276 -277 -278 -279 -280 -281 -282 283 -284 -285 -286
v -287 -288 -289 -290 291 -292 -293 -294 295 -296 -297 -298 -299 -300 -301
v -302 303 -304 -305 -306 -307 -308 -309 -310 311 -312 -313 -314 -315 -316
v -317 -318 319 -320 -321 -322 -323 -324 -325 -326 327 -328 -329 -330 -331
v -332 -333 -334 335 -336 -337 -338 -339 -340 -341 -342 343 0
c 
c --- [ run-time profiling ] -------------------------------------------------
c 
c process time taken by individual solving procedures
c (percentage relative to process time for solving)
c 
c         0.00   94.56% search
c         0.00   84.12% unstable
c         0.00   35.19% parse
c         0.00    3.24% lucky
c         0.00    0.00% simplify
c   =================================
c         0.01   66.80% solve
c 
c last line shows process time for solving
c (percentage relative to total process time)
c 
c --- [ statistics ] ---------------------------------------------------------
c 
c chronological:                53        31.18 %  of conflicts
c conflicts:                   170     33537.19    per second
c decisions:                   340     67074.37    per second
c fixed:                        50        14.58 %  of all variables
c learned:                     168        98.82 %  per conflict
c learned_lits:               2462       100.00 %  learned literals
c minimized:                     0         0.00 %  learned literals
c shrunken:                   1159        47.08 %  learned literals
c minishrunken:                 46         1.87 %  learned literals
c propagations:              14357         2.83 M  per second
c restarts:                     22         7.73    interval
c subsumed:                     37         0.66 %  of all clauses
c 
c seconds are measured in process time for solving
c 
c --- [ resources ] ----------------------------------------------------------
c 
c total process time since initialization:         0.01    seconds
c total real time since initialization:            0.01    seconds
c maximum resident set size of process:            3.43    MB
c 
c --- [ shutting down ] ------------------------------------------------------
c 
c exit 10
